/* Objective function */
max : 420 * X3 + 360 * X2 + 300 * X1 + 420 * X6 + 360 * X5 + 300 * X4 + 420 * X9 + 360 * X8 + 300 * X7;

/* Constraints */
X1 + X2 + X3 <= 750;
X4 + X5 + X6 <= 900;
X7 + X8 + X9 <= 450;
X3 + X6 + X9 <= 900;
X2 + X5 + X8 <= 1200;
X1 + X4 + X7 <= 750; 
12 * X1 + 15 * X2 + 20 * X3 <= 13000;
12 * X4 + 15 * X5 + 20 *X6 <=12000;
12 * X7 + 15 * X8 + 20 * X9 <=5000; 


